
Gurobi 13.0.2 (win64) logging started Thu Jul 23 07:59:17 2026

Set parameter LogFile to value "E:\codes\ExactEBRP\results\gf_cplex_equivalent_gurobi_replica_round28\runs\stage3__V12_M1__c3_replica__300s\external\native_logs\R.1.0.0.1.0.1.1.1.1.0_terminal_mip.gurobi.log"
Gurobi Optimizer version 13.0.2 build v13.0.2rc1 (win64 - Windows 10.0 (19045.2))

CPU model: 12th Gen Intel(R) Core(TM) i7-12700KF, instruction set [SSE2|AVX|AVX2]
Thread count: 12 physical cores, 20 logical processors, using up to 1 threads

Non-default parameters:
TimeLimit  3.9868386399999991e+01
MIPGap  0
MIPGapAbs  0
LogToConsole  0
Threads  1

Optimize a model with 6225 rows, 648 columns and 59365 nonzeros (Min)
Model fingerprint: 0x72474eee
Model has 13 linear objective coefficients
Variable types: 347 continuous, 301 integer (253 binary)
Coefficient statistics:
  Matrix range     [2e-03, 1e+05]
  Objective range  [2e-03, 1e+00]
  Bounds range     [1e-01, 8e+01]
  RHS range        [3e-02, 1e+06]

Presolve removed 747 rows and 27 columns
Presolve time: 0.13s
Presolved: 5478 rows, 621 columns, 58734 nonzeros
Variable types: 321 continuous, 300 integer (252 binary)

Root relaxation: objective 3.253431e-01, 822 iterations, 0.04 seconds (0.12 work units)

    Nodes    |    Current Node    |     Objective Bounds      |     Work
 Expl Unexpl |  Obj  Depth IntInf | Incumbent    BestBd   Gap | It/Node Time

     0     0    0.32534    0   88          -    0.32534      -     -    0s
     0     0    0.32861    0   73          -    0.32861      -     -    0s
     0     0    0.32861    0   73          -    0.32861      -     -    0s
     0     0    0.33104    0  108          -    0.33104      -     -    0s
     0     0    0.33162    0  108          -    0.33162      -     -    0s
     0     0    0.33273    0  124          -    0.33273      -     -    1s
     0     0    0.33279    0  121          -    0.33279      -     -    1s
     0     0    0.33378    0  118          -    0.33378      -     -    1s
     0     0    0.33382    0  122          -    0.33382      -     -    1s
     0     0    0.33402    0  107          -    0.33402      -     -    1s
     0     0    0.33407    0  109          -    0.33407      -     -    1s
     0     0    0.33424    0  110          -    0.33424      -     -    1s
     0     0    0.33428    0  107          -    0.33428      -     -    1s
     0     0    0.33428    0  107          -    0.33428      -     -    2s
     0     0    0.33428    0  107          -    0.33428      -     -    2s
     0     0    0.33428    0  103          -    0.33428      -     -    2s
     0     2    0.33428    0  103          -    0.33428      -     -    2s
   448   242    0.34658   19   56          -    0.34390      -  43.3    5s

Cutting planes:
  Learned: 3
  Gomory: 1
  Cover: 13
  Implied bound: 28
  Clique: 17
  MIR: 40
  StrongCG: 4
  Flow cover: 28
  Zero half: 1
  Network: 2
  RLT: 6
  Relax-and-lift: 5

Explored 1485 nodes (44573 simplex iterations) in 8.21 seconds (13.06 work units)
Thread count was 1 (of 20 available processors)

Solution count 0

Model is infeasible
Best objective -, best bound -, gap -

User-callback calls 7016, time in user-callback 0.00 sec
